NAME: region2 
COMMENT: Mitad_izquierda 
TYPE: TSP 
DIMENSION: 25
EDGE_WEIGHT_TYPE: EUC_2D 
NODE_COORD_SECTION 
1 565 575
2 25 185
7 25 230
12 1220 580
13 1465 200
14 1530 5
16 725 370
20 560 365
21 300 465
22 520 585
23 480 415
25 975 580
26 1215 245
27 1320 315
28 1250 400
29 660 180
30 410 250
31 420 555
34 700 580
42 95 260
44 700 500
46 830 485
47 1170 65
50 595 360
52 1740 245
EOF 
